(set-logic QF_S)
(declare-fun var0 () String)
(declare-fun var1 () String)
(declare-fun var2 () Int)
(declare-fun var3 () String)
(declare-fun var4 () Int)
(declare-fun var5 () Int)
(declare-fun var6 () String)
(declare-fun var7 () Int)
(assert (>= (str.to.int var0) (str.to.int var1)))
(assert (> 48 var2))
(assert (str.in.re (str.substr var3 var4 var5) (re.+ re.allchar)))
(assert (> (str.indexof (str.replace var6 var3 "") (str.replace var0 var3 var6) (str.len var3)) (str.to.int (str.at var6 var7))))
(check-sat)